examples/inputs/input9.dzn
n = 30;
l = 150;
s = 100;
r = 120;
f = 70;
forbidden = [| 25, 26
	| 21, 30
	| 5, 27
	| 2, 15
	| 1, 15
	| 27, 5
	| 16, 2
	| 23, 19
	| 7, 29
	| 16, 20
	| 15, 30
	| 7, 11
	| 9, 4
	| 21, 9
	| 23, 7
	| 19, 23
	| 5, 9
	| 24, 2
	| 16, 15
	| 18, 17
	| 14, 20
	| 12, 14
	| 26, 20
	| 25, 2
	| 2, 28
	| 26, 13
	| 28, 5
	| 1, 11
	| 13, 15
	| 23, 4
	| 7, 19
	| 24, 1
	| 1, 10
	| 24, 7
	| 5, 12
	| 16, 27
	| 22, 3
	| 27, 12
	| 25, 29
	| 9, 13
	| 3, 22
	| 22, 25
	| 30, 30
	| 27, 8
	| 2, 25
	| 8, 19
	| 20, 13
	| 28, 2
	| 13, 7
	| 6, 26
	| 27, 9
	| 19, 15
	| 12, 23
	| 12, 3
	| 9, 12
	| 2, 6
	| 27, 27
	| 9, 30
	| 8, 17
	| 29, 11
	| 18, 20
	| 5, 10
	| 17, 15
	| 10, 30
	| 16, 6
	| 25, 22
	| 1, 20
	| 3, 18
	| 9, 11
	| 22, 30
	|];