examples/inputs/input9.lp
#const n = 30.
#const l = 150.
#const s = 100.
#const r = 120.
#const f = 70.
val(25, 26, xxx).
val(21, 30, xxx).
val(5, 27, xxx).
val(2, 15, xxx).
val(1, 15, xxx).
val(27, 5, xxx).
val(16, 2, xxx).
val(23, 19, xxx).
val(7, 29, xxx).
val(16, 20, xxx).
val(15, 30, xxx).
val(7, 11, xxx).
val(9, 4, xxx).
val(21, 9, xxx).
val(23, 7, xxx).
val(19, 23, xxx).
val(5, 9, xxx).
val(24, 2, xxx).
val(16, 15, xxx).
val(18, 17, xxx).
val(14, 20, xxx).
val(12, 14, xxx).
val(26, 20, xxx).
val(25, 2, xxx).
val(2, 28, xxx).
val(26, 13, xxx).
val(28, 5, xxx).
val(1, 11, xxx).
val(13, 15, xxx).
val(23, 4, xxx).
val(7, 19, xxx).
val(24, 1, xxx).
val(1, 10, xxx).
val(24, 7, xxx).
val(5, 12, xxx).
val(16, 27, xxx).
val(22, 3, xxx).
val(27, 12, xxx).
val(25, 29, xxx).
val(9, 13, xxx).
val(3, 22, xxx).
val(22, 25, xxx).
val(30, 30, xxx).
val(27, 8, xxx).
val(2, 25, xxx).
val(8, 19, xxx).
val(20, 13, xxx).
val(28, 2, xxx).
val(13, 7, xxx).
val(6, 26, xxx).
val(27, 9, xxx).
val(19, 15, xxx).
val(12, 23, xxx).
val(12, 3, xxx).
val(9, 12, xxx).
val(2, 6, xxx).
val(27, 27, xxx).
val(9, 30, xxx).
val(8, 17, xxx).
val(29, 11, xxx).
val(18, 20, xxx).
val(5, 10, xxx).
val(17, 15, xxx).
val(10, 30, xxx).
val(16, 6, xxx).
val(25, 22, xxx).
val(1, 20, xxx).
val(3, 18, xxx).
val(9, 11, xxx).
val(22, 30, xxx).